<instance format="XCSP3" type="CSP">
  <variables>
    <array id="x" size="[15]"> 0 1 </array>
  </variables>
  <constraints>
    <sum>
      <list> x[] </list>
      <coeffs> 8 24 13 80 70 80 45 15 28 90 130 32 20 120 40 </coeffs>
      <condition> (le,550) </condition>
    </sum>
    <sum>
      <list> x[] </list>
      <coeffs> 8 44 13 100 100 90 75 25 28 120 130 32 40 160 40 </coeffs>
      <condition> (le,700) </condition>
    </sum>
    <sum>
      <list> x[] </list>
      <coeffs> 3 6 4 20 20 30 8 3 12 14 40 6 3 20 5 </coeffs>
      <condition> (le,130) </condition>
    </sum>
    <sum>
      <list> x[] </list>
      <coeffs> 5 9 6 40 30 40 16 5 18 24 60 16 11 30 25 </coeffs>
      <condition> (le,240) </condition>
    </sum>
    <sum>
      <list> x[] </list>
      <coeffs> 5 11 7 50 40 40 19 7 18 29 70 21 17 30 25 </coeffs>
      <condition> (le,280) </condition>
    </sum>
    <sum>
      <list> x[] </list>
      <coeffs> 5 11 7 55 40 40 21 9 18 29 70 21 17 35 25 </coeffs>
      <condition> (le,310) </condition>
    </sum>
    <sum>
      <list> x[] </list>
      <coeffs> 0 0 1 10 4 10 0 6 0 6 32 3 0 70 10 </coeffs>
      <condition> (le,110) </condition>
    </sum>
    <sum>
      <list> x[] </list>
      <coeffs> 3 4 5 20 14 20 6 12 10 18 42 9 12 100 20 </coeffs>
      <condition> (le,205) </condition>
    </sum>
    <sum>
      <list> x[] </list>
      <coeffs> 3 6 9 30 29 20 12 12 10 30 42 18 18 110 20 </coeffs>
      <condition> (le,260) </condition>
    </sum>
    <sum>
      <list> x[] </list>
      <coeffs> 3 8 9 35 29 20 16 15 10 30 42 20 18 120 20 </coeffs>
      <condition> (le,275) </condition>
    </sum>
    <sum>
      <list> x[] </list>
      <coeffs> 100 220 90 400 300 400 205 120 160 580 400 140 100 1300 650 </coeffs>
      <condition> (eq,4015) </condition>
    </sum>
  </constraints>
</instance>

